% Logging successfully configured
%%%mzn-stat: initTime=0.003994503
%%%mzn-stat: objective=629
%%%mzn-stat: nodes=786
%%%mzn-stat: restarts=0
%%%mzn-stat: peakDepth=175
%%%mzn-stat: solveTime=0.015655464
%%%mzn-stat: variables=372
%%%mzn-stat: propagators=253
%%%mzn-stat: failures=226
%%%mzn-stat: propagations=6779
%%%mzn-stat: nogoods=226
%%%mzn-stat: numAtomicConstraintsPropagated=0
%%%mzn-stat: allDifferentNumber1TotalHallSetSize=1059
%%%mzn-stat: allDifferentNumber1NumberOfConflicts=219
%%%mzn-stat: allDifferentNumber1MaxHallSetSize=15
%%%mzn-stat: allDifferentNumber1PropagationsTotal=1219
%%%mzn-stat: allDifferentNumber1PropagationsThatFoundConflict=219
%%%mzn-stat: circuitNumber2PropagationsThatFoundConflict=6
%%%mzn-stat: circuitNumber2TotalFixedEdgesAtConflict=106
%%%mzn-stat: circuitNumber2NumberOfConflicts=6
%%%mzn-stat: circuitNumber2PropagationsThatPruned=128
%%%mzn-stat: circuitNumber2PropagationsTotal=672
%%%mzn-stat: AverageConflictSize=5.128318584070796
%%%mzn-stat: NumUnitNogoodsLearned=0
%%%mzn-stat: AverageLearnedNogoodLength=7.721238938053097
%%%mzn-stat: AverageBacktrackAmount=0
%%%mzn-stat: AverageLbd=7.402654867256637
%%%mzn-stat: 2AutonomousSearchNumBackupCalled=159
%%%mzn-stat: 2AutonomousSearchNumPredicatesRemoved=0
%%%mzn-stat: 2AutonomousSearchNumCalls=160
%%%mzn-stat: 2AutonomousSearchNumPredicatesAdded=219
%%%mzn-stat: 2AutonomousSearchAverageSizeOfHeap=1.36875
%%%mzn-stat: 2AutonomousSearchNumAssignedPredicatesEncountered=219
%%%mzn-stat-end
maxleg = 629;
succ = array1d(1..20,[2, 6, 5, 1, 4, 8, 3, 10, 7, 11, 17, 13, 18, 15, 16, 20, 14, 19, 9, 12]);
% time elapsed: 0.19 s
----------
%%%mzn-stat: initTime=0.003994503
%%%mzn-stat: objective=605
%%%mzn-stat: nodes=957
%%%mzn-stat: restarts=0
%%%mzn-stat: peakDepth=175
%%%mzn-stat: solveTime=0.01605549
%%%mzn-stat: variables=372
%%%mzn-stat: propagators=253
%%%mzn-stat: failures=227
%%%mzn-stat: propagations=7230
%%%mzn-stat: nogoods=227
%%%mzn-stat: numAtomicConstraintsPropagated=0
%%%mzn-stat: allDifferentNumber1TotalHallSetSize=1061
%%%mzn-stat: allDifferentNumber1NumberOfConflicts=220
%%%mzn-stat: allDifferentNumber1MaxHallSetSize=15
%%%mzn-stat: allDifferentNumber1PropagationsTotal=1240
%%%mzn-stat: allDifferentNumber1PropagationsThatFoundConflict=220
%%%mzn-stat: circuitNumber2PropagationsThatFoundConflict=6
%%%mzn-stat: circuitNumber2TotalFixedEdgesAtConflict=106
%%%mzn-stat: circuitNumber2NumberOfConflicts=6
%%%mzn-stat: circuitNumber2PropagationsThatPruned=129
%%%mzn-stat: circuitNumber2PropagationsTotal=689
%%%mzn-stat: AverageConflictSize=5.11453744493392
%%%mzn-stat: NumUnitNogoodsLearned=0
%%%mzn-stat: AverageLearnedNogoodLength=7.6960352422907485
%%%mzn-stat: AverageBacktrackAmount=0
%%%mzn-stat: AverageLbd=7.378854625550661
%%%mzn-stat: 2AutonomousSearchNumBackupCalled=313
%%%mzn-stat: 2AutonomousSearchNumPredicatesRemoved=0
%%%mzn-stat: 2AutonomousSearchNumCalls=315
%%%mzn-stat: 2AutonomousSearchNumPredicatesAdded=221
%%%mzn-stat: 2AutonomousSearchAverageSizeOfHeap=1.3904761904761904
%%%mzn-stat: 2AutonomousSearchNumAssignedPredicatesEncountered=438
%%%mzn-stat-end
maxleg = 605;
succ = array1d(1..20,[2, 6, 5, 1, 4, 8, 3, 10, 7, 11, 17, 13, 18, 16, 14, 20, 15, 19, 9, 12]);
% time elapsed: 0.19 s
----------
%%%mzn-stat: initTime=0.003994503
%%%mzn-stat: objective=502
%%%mzn-stat: nodes=1800
%%%mzn-stat: restarts=0
%%%mzn-stat: peakDepth=175
%%%mzn-stat: solveTime=0.061796255
%%%mzn-stat: variables=372
%%%mzn-stat: propagators=253
%%%mzn-stat: failures=793
%%%mzn-stat: propagations=20623
%%%mzn-stat: nogoods=793
%%%mzn-stat: numAtomicConstraintsPropagated=0
%%%mzn-stat: allDifferentNumber1TotalHallSetSize=2833
%%%mzn-stat: allDifferentNumber1NumberOfConflicts=664
%%%mzn-stat: allDifferentNumber1MaxHallSetSize=15
%%%mzn-stat: allDifferentNumber1PropagationsTotal=3000
%%%mzn-stat: allDifferentNumber1PropagationsThatFoundConflict=664
%%%mzn-stat: circuitNumber2PropagationsThatFoundConflict=66
%%%mzn-stat: circuitNumber2TotalFixedEdgesAtConflict=1062
%%%mzn-stat: circuitNumber2NumberOfConflicts=66
%%%mzn-stat: circuitNumber2PropagationsThatPruned=267
%%%mzn-stat: circuitNumber2PropagationsTotal=1421
%%%mzn-stat: AverageConflictSize=6.16141235813367
%%%mzn-stat: NumUnitNogoodsLearned=0
%%%mzn-stat: AverageLearnedNogoodLength=11.529634300126103
%%%mzn-stat: AverageBacktrackAmount=0
%%%mzn-stat: AverageLbd=8.210592686002522
%%%mzn-stat: 2AutonomousSearchNumBackupCalled=453
%%%mzn-stat: 2AutonomousSearchNumPredicatesRemoved=0
%%%mzn-stat: 2AutonomousSearchNumCalls=456
%%%mzn-stat: 2AutonomousSearchNumPredicatesAdded=536
%%%mzn-stat: 2AutonomousSearchAverageSizeOfHeap=1.8201754385964912
%%%mzn-stat: 2AutonomousSearchNumAssignedPredicatesEncountered=830
%%%mzn-stat-end
maxleg = 502;
succ = array1d(1..20,[2, 6, 5, 1, 4, 8, 3, 15, 7, 11, 18, 13, 19, 16, 17, 20, 14, 9, 10, 12]);
% time elapsed: 0.23 s
----------
%%%mzn-stat: initTime=0.003994503
%%%mzn-stat: objective=455
%%%mzn-stat: nodes=2180
%%%mzn-stat: restarts=0
%%%mzn-stat: peakDepth=175
%%%mzn-stat: solveTime=0.070643073
%%%mzn-stat: variables=372
%%%mzn-stat: propagators=253
%%%mzn-stat: failures=903
%%%mzn-stat: propagations=23965
%%%mzn-stat: nogoods=903
%%%mzn-stat: numAtomicConstraintsPropagated=0
%%%mzn-stat: allDifferentNumber1TotalHallSetSize=3172
%%%mzn-stat: allDifferentNumber1NumberOfConflicts=742
%%%mzn-stat: allDifferentNumber1MaxHallSetSize=15
%%%mzn-stat: allDifferentNumber1PropagationsTotal=3469
%%%mzn-stat: allDifferentNumber1PropagationsThatFoundConflict=742
%%%mzn-stat: circuitNumber2PropagationsThatFoundConflict=84
%%%mzn-stat: circuitNumber2TotalFixedEdgesAtConflict=1361
%%%mzn-stat: circuitNumber2NumberOfConflicts=84
%%%mzn-stat: circuitNumber2PropagationsThatPruned=293
%%%mzn-stat: circuitNumber2PropagationsTotal=1634
%%%mzn-stat: AverageConflictSize=6.209302325581396
%%%mzn-stat: NumUnitNogoodsLearned=0
%%%mzn-stat: AverageLearnedNogoodLength=11.280177187153932
%%%mzn-stat: AverageBacktrackAmount=0
%%%mzn-stat: AverageLbd=7.960132890365449
%%%mzn-stat: 2AutonomousSearchNumBackupCalled=589
%%%mzn-stat: 2AutonomousSearchNumPredicatesRemoved=0
%%%mzn-stat: 2AutonomousSearchNumCalls=593
%%%mzn-stat: 2AutonomousSearchNumPredicatesAdded=883
%%%mzn-stat: 2AutonomousSearchAverageSizeOfHeap=2.219224283305228
%%%mzn-stat: 2AutonomousSearchNumAssignedPredicatesEncountered=1316
%%%mzn-stat-end
maxleg = 455;
succ = array1d(1..20,[4, 6, 5, 12, 7, 8, 9, 1, 18, 11, 13, 3, 16, 15, 17, 20, 2, 19, 10, 14]);
% time elapsed: 0.24 s
----------
%%%mzn-stat: initTime=0.003994503
%%%mzn-stat: objective=444
%%%mzn-stat: nodes=2316
%%%mzn-stat: restarts=0
%%%mzn-stat: peakDepth=175
%%%mzn-stat: solveTime=0.071155821
%%%mzn-stat: variables=372
%%%mzn-stat: propagators=253
%%%mzn-stat: failures=903
%%%mzn-stat: propagations=24441
%%%mzn-stat: nogoods=903
%%%mzn-stat: numAtomicConstraintsPropagated=0
%%%mzn-stat: allDifferentNumber1TotalHallSetSize=3172
%%%mzn-stat: allDifferentNumber1NumberOfConflicts=742
%%%mzn-stat: allDifferentNumber1MaxHallSetSize=15
%%%mzn-stat: allDifferentNumber1PropagationsTotal=3492
%%%mzn-stat: allDifferentNumber1PropagationsThatFoundConflict=742
%%%mzn-stat: circuitNumber2PropagationsThatFoundConflict=84
%%%mzn-stat: circuitNumber2TotalFixedEdgesAtConflict=1361
%%%mzn-stat: circuitNumber2NumberOfConflicts=84
%%%mzn-stat: circuitNumber2PropagationsThatPruned=295
%%%mzn-stat: circuitNumber2PropagationsTotal=1648
%%%mzn-stat: AverageConflictSize=6.209302325581396
%%%mzn-stat: NumUnitNogoodsLearned=0
%%%mzn-stat: AverageLearnedNogoodLength=11.280177187153932
%%%mzn-stat: AverageBacktrackAmount=0
%%%mzn-stat: AverageLbd=7.960132890365449
%%%mzn-stat: 2AutonomousSearchNumBackupCalled=712
%%%mzn-stat: 2AutonomousSearchNumPredicatesRemoved=0
%%%mzn-stat: 2AutonomousSearchNumCalls=717
%%%mzn-stat: 2AutonomousSearchNumPredicatesAdded=883
%%%mzn-stat: 2AutonomousSearchAverageSizeOfHeap=2.513249651324965
%%%mzn-stat: 2AutonomousSearchNumAssignedPredicatesEncountered=1802
%%%mzn-stat-end
maxleg = 444;
succ = array1d(1..20,[4, 6, 5, 12, 7, 8, 9, 1, 18, 11, 19, 3, 16, 15, 17, 20, 2, 10, 13, 14]);
% time elapsed: 0.24 s
----------
%%%mzn-stat: initTime=0.003994503
%%%mzn-stat: objective=438
%%%mzn-stat: nodes=2653
%%%mzn-stat: restarts=0
%%%mzn-stat: peakDepth=175
%%%mzn-stat: solveTime=0.080922254
%%%mzn-stat: variables=372
%%%mzn-stat: propagators=253
%%%mzn-stat: failures=990
%%%mzn-stat: propagations=28174
%%%mzn-stat: nogoods=990
%%%mzn-stat: numAtomicConstraintsPropagated=0
%%%mzn-stat: allDifferentNumber1TotalHallSetSize=3530
%%%mzn-stat: allDifferentNumber1NumberOfConflicts=801
%%%mzn-stat: allDifferentNumber1MaxHallSetSize=17
%%%mzn-stat: allDifferentNumber1PropagationsTotal=3939
%%%mzn-stat: allDifferentNumber1PropagationsThatFoundConflict=801
%%%mzn-stat: circuitNumber2PropagationsThatFoundConflict=110
%%%mzn-stat: circuitNumber2TotalFixedEdgesAtConflict=1801
%%%mzn-stat: circuitNumber2NumberOfConflicts=110
%%%mzn-stat: circuitNumber2PropagationsThatPruned=331
%%%mzn-stat: circuitNumber2PropagationsTotal=1891
%%%mzn-stat: AverageConflictSize=6.586868686868687
%%%mzn-stat: NumUnitNogoodsLearned=0
%%%mzn-stat: AverageLearnedNogoodLength=11.464646464646465
%%%mzn-stat: AverageBacktrackAmount=0
%%%mzn-stat: AverageLbd=7.937373737373737
%%%mzn-stat: 2AutonomousSearchNumBackupCalled=833
%%%mzn-stat: 2AutonomousSearchNumPredicatesRemoved=0
%%%mzn-stat: 2AutonomousSearchNumCalls=839
%%%mzn-stat: 2AutonomousSearchNumPredicatesAdded=1269
%%%mzn-stat: 2AutonomousSearchAverageSizeOfHeap=2.8045292014302743
%%%mzn-stat: 2AutonomousSearchNumAssignedPredicatesEncountered=2353
%%%mzn-stat-end
maxleg = 438;
succ = array1d(1..20,[4, 6, 5, 12, 7, 10, 9, 15, 1, 11, 18, 16, 3, 8, 17, 20, 2, 19, 13, 14]);
% time elapsed: 0.26 s
----------
%%%mzn-stat: initTime=0.003994503
%%%mzn-stat: objective=417
%%%mzn-stat: nodes=2815
%%%mzn-stat: restarts=0
%%%mzn-stat: peakDepth=175
%%%mzn-stat: solveTime=0.083997661
%%%mzn-stat: variables=372
%%%mzn-stat: propagators=253
%%%mzn-stat: failures=1009
%%%mzn-stat: propagations=29414
%%%mzn-stat: nogoods=1009
%%%mzn-stat: numAtomicConstraintsPropagated=0
%%%mzn-stat: allDifferentNumber1TotalHallSetSize=3629
%%%mzn-stat: allDifferentNumber1NumberOfConflicts=820
%%%mzn-stat: allDifferentNumber1MaxHallSetSize=17
%%%mzn-stat: allDifferentNumber1PropagationsTotal=4054
%%%mzn-stat: allDifferentNumber1PropagationsThatFoundConflict=820
%%%mzn-stat: circuitNumber2PropagationsThatFoundConflict=110
%%%mzn-stat: circuitNumber2TotalFixedEdgesAtConflict=1801
%%%mzn-stat: circuitNumber2NumberOfConflicts=110
%%%mzn-stat: circuitNumber2PropagationsThatPruned=339
%%%mzn-stat: circuitNumber2PropagationsTotal=1946
%%%mzn-stat: AverageConflictSize=6.725470763131813
%%%mzn-stat: NumUnitNogoodsLearned=0
%%%mzn-stat: AverageLearnedNogoodLength=11.737363726461844
%%%mzn-stat: AverageBacktrackAmount=0
%%%mzn-stat: AverageLbd=7.934588701684836
%%%mzn-stat: 2AutonomousSearchNumBackupCalled=939
%%%mzn-stat: 2AutonomousSearchNumPredicatesRemoved=0
%%%mzn-stat: 2AutonomousSearchNumCalls=946
%%%mzn-stat: 2AutonomousSearchNumPredicatesAdded=1575
%%%mzn-stat: 2AutonomousSearchAverageSizeOfHeap=3.0961945031712474
%%%mzn-stat: 2AutonomousSearchNumAssignedPredicatesEncountered=2929
%%%mzn-stat-end
maxleg = 417;
succ = array1d(1..20,[4, 6, 5, 14, 7, 10, 9, 15, 1, 11, 18, 3, 16, 8, 17, 20, 2, 19, 13, 12]);
% time elapsed: 0.27 s
----------
%%%mzn-stat: initTime=0.003994503
%%%mzn-stat: objective=412
%%%mzn-stat: nodes=2937
%%%mzn-stat: restarts=0
%%%mzn-stat: peakDepth=175
%%%mzn-stat: solveTime=0.084735003
%%%mzn-stat: variables=372
%%%mzn-stat: propagators=253
%%%mzn-stat: failures=1010
%%%mzn-stat: propagations=29916
%%%mzn-stat: nogoods=1010
%%%mzn-stat: numAtomicConstraintsPropagated=0
%%%mzn-stat: allDifferentNumber1TotalHallSetSize=3634
%%%mzn-stat: allDifferentNumber1NumberOfConflicts=821
%%%mzn-stat: allDifferentNumber1MaxHallSetSize=17
%%%mzn-stat: allDifferentNumber1PropagationsTotal=4084
%%%mzn-stat: allDifferentNumber1PropagationsThatFoundConflict=821
%%%mzn-stat: circuitNumber2PropagationsThatFoundConflict=110
%%%mzn-stat: circuitNumber2TotalFixedEdgesAtConflict=1801
%%%mzn-stat: circuitNumber2NumberOfConflicts=110
%%%mzn-stat: circuitNumber2PropagationsThatPruned=342
%%%mzn-stat: circuitNumber2PropagationsTotal=1964
%%%mzn-stat: AverageConflictSize=6.736633663366336
%%%mzn-stat: NumUnitNogoodsLearned=0
%%%mzn-stat: AverageLearnedNogoodLength=11.75049504950495
%%%mzn-stat: AverageBacktrackAmount=0
%%%mzn-stat: AverageLbd=7.93960396039604
%%%mzn-stat: 2AutonomousSearchNumBackupCalled=1045
%%%mzn-stat: 2AutonomousSearchNumPredicatesRemoved=0
%%%mzn-stat: 2AutonomousSearchNumCalls=1053
%%%mzn-stat: 2AutonomousSearchNumPredicatesAdded=1615
%%%mzn-stat: 2AutonomousSearchAverageSizeOfHeap=3.3285849952516617
%%%mzn-stat: 2AutonomousSearchNumAssignedPredicatesEncountered=3505
%%%mzn-stat-end
maxleg = 412;
succ = array1d(1..20,[4, 6, 5, 14, 7, 10, 9, 15, 12, 11, 18, 16, 3, 8, 17, 20, 2, 19, 13, 1]);
% time elapsed: 0.27 s
----------
%%%mzn-stat: initTime=0.003994503
%%%mzn-stat: objective=403
%%%mzn-stat: nodes=3066
%%%mzn-stat: restarts=0
%%%mzn-stat: peakDepth=175
%%%mzn-stat: solveTime=0.086399089
%%%mzn-stat: variables=372
%%%mzn-stat: propagators=253
%%%mzn-stat: failures=1022
%%%mzn-stat: propagations=30749
%%%mzn-stat: nogoods=1022
%%%mzn-stat: numAtomicConstraintsPropagated=0
%%%mzn-stat: allDifferentNumber1TotalHallSetSize=3703
%%%mzn-stat: allDifferentNumber1NumberOfConflicts=833
%%%mzn-stat: allDifferentNumber1MaxHallSetSize=17
%%%mzn-stat: allDifferentNumber1PropagationsTotal=4148
%%%mzn-stat: allDifferentNumber1PropagationsThatFoundConflict=833
%%%mzn-stat: circuitNumber2PropagationsThatFoundConflict=110
%%%mzn-stat: circuitNumber2TotalFixedEdgesAtConflict=1801
%%%mzn-stat: circuitNumber2NumberOfConflicts=110
%%%mzn-stat: circuitNumber2PropagationsThatPruned=347
%%%mzn-stat: circuitNumber2PropagationsTotal=1995
%%%mzn-stat: AverageConflictSize=6.8317025440313115
%%%mzn-stat: NumUnitNogoodsLearned=0
%%%mzn-stat: AverageLearnedNogoodLength=11.888454011741683
%%%mzn-stat: AverageBacktrackAmount=0
%%%mzn-stat: AverageLbd=7.930528375733855
%%%mzn-stat: 2AutonomousSearchNumBackupCalled=1142
%%%mzn-stat: 2AutonomousSearchNumPredicatesRemoved=0
%%%mzn-stat: 2AutonomousSearchNumCalls=1151
%%%mzn-stat: 2AutonomousSearchNumPredicatesAdded=1846
%%%mzn-stat: 2AutonomousSearchAverageSizeOfHeap=3.5569070373588185
%%%mzn-stat: 2AutonomousSearchNumAssignedPredicatesEncountered=4094
%%%mzn-stat-end
maxleg = 403;
succ = array1d(1..20,[4, 6, 5, 16, 7, 10, 9, 15, 12, 11, 18, 1, 3, 8, 17, 20, 2, 19, 13, 14]);
% time elapsed: 0.27 s
----------
%%%mzn-stat: initTime=0.003994503
%%%mzn-stat: objective=388
%%%mzn-stat: nodes=3311
%%%mzn-stat: restarts=0
%%%mzn-stat: peakDepth=175
%%%mzn-stat: solveTime=0.095665732
%%%mzn-stat: variables=372
%%%mzn-stat: propagators=253
%%%mzn-stat: failures=1103
%%%mzn-stat: propagations=34450
%%%mzn-stat: nogoods=1103
%%%mzn-stat: numAtomicConstraintsPropagated=0
%%%mzn-stat: allDifferentNumber1TotalHallSetSize=3930
%%%mzn-stat: allDifferentNumber1NumberOfConflicts=887
%%%mzn-stat: allDifferentNumber1MaxHallSetSize=17
%%%mzn-stat: allDifferentNumber1PropagationsTotal=4545
%%%mzn-stat: allDifferentNumber1PropagationsThatFoundConflict=887
%%%mzn-stat: circuitNumber2PropagationsThatFoundConflict=129
%%%mzn-stat: circuitNumber2TotalFixedEdgesAtConflict=2119
%%%mzn-stat: circuitNumber2NumberOfConflicts=129
%%%mzn-stat: circuitNumber2PropagationsThatPruned=399
%%%mzn-stat: circuitNumber2PropagationsTotal=2205
%%%mzn-stat: AverageConflictSize=6.99728014505893
%%%mzn-stat: NumUnitNogoodsLearned=0
%%%mzn-stat: AverageLearnedNogoodLength=12.29827742520399
%%%mzn-stat: AverageBacktrackAmount=0
%%%mzn-stat: AverageLbd=7.871260199456029
%%%mzn-stat: 2AutonomousSearchNumBackupCalled=1230
%%%mzn-stat: 2AutonomousSearchNumPredicatesRemoved=0
%%%mzn-stat: 2AutonomousSearchNumCalls=1240
%%%mzn-stat: 2AutonomousSearchNumPredicatesAdded=2290
%%%mzn-stat: 2AutonomousSearchAverageSizeOfHeap=3.799193548387097
%%%mzn-stat: 2AutonomousSearchNumAssignedPredicatesEncountered=4711
%%%mzn-stat-end
maxleg = 388;
succ = array1d(1..20,[4, 6, 5, 16, 7, 10, 18, 15, 3, 19, 8, 1, 12, 20, 17, 14, 2, 11, 13, 9]);
% time elapsed: 0.28 s
----------
%%%mzn-stat: initTime=0.003994503
%%%mzn-stat: objective=386
%%%mzn-stat: nodes=3552
%%%mzn-stat: restarts=0
%%%mzn-stat: peakDepth=175
%%%mzn-stat: solveTime=0.103244469
%%%mzn-stat: variables=372
%%%mzn-stat: propagators=253
%%%mzn-stat: failures=1174
%%%mzn-stat: propagations=38165
%%%mzn-stat: nogoods=1174
%%%mzn-stat: numAtomicConstraintsPropagated=0
%%%mzn-stat: allDifferentNumber1TotalHallSetSize=4179
%%%mzn-stat: allDifferentNumber1NumberOfConflicts=935
%%%mzn-stat: allDifferentNumber1MaxHallSetSize=17
%%%mzn-stat: allDifferentNumber1PropagationsTotal=4905
%%%mzn-stat: allDifferentNumber1PropagationsThatFoundConflict=935
%%%mzn-stat: circuitNumber2PropagationsThatFoundConflict=146
%%%mzn-stat: circuitNumber2TotalFixedEdgesAtConflict=2403
%%%mzn-stat: circuitNumber2NumberOfConflicts=146
%%%mzn-stat: circuitNumber2PropagationsThatPruned=438
%%%mzn-stat: circuitNumber2PropagationsTotal=2389
%%%mzn-stat: AverageConflictSize=7.245315161839864
%%%mzn-stat: NumUnitNogoodsLearned=0
%%%mzn-stat: AverageLearnedNogoodLength=12.67717206132879
%%%mzn-stat: AverageBacktrackAmount=0
%%%mzn-stat: AverageLbd=7.727427597955707
%%%mzn-stat: 2AutonomousSearchNumBackupCalled=1318
%%%mzn-stat: 2AutonomousSearchNumPredicatesRemoved=0
%%%mzn-stat: 2AutonomousSearchNumCalls=1329
%%%mzn-stat: 2AutonomousSearchNumPredicatesAdded=2803
%%%mzn-stat: 2AutonomousSearchAverageSizeOfHeap=4.054176072234763
%%%mzn-stat: 2AutonomousSearchNumAssignedPredicatesEncountered=5388
%%%mzn-stat-end
maxleg = 386;
succ = array1d(1..20,[4, 11, 5, 16, 9, 8, 3, 15, 12, 6, 18, 1, 19, 20, 17, 14, 2, 7, 10, 13]);
% time elapsed: 0.28 s
----------
%%%mzn-stat: initTime=0.003994503
%%%mzn-stat: objective=381
%%%mzn-stat: nodes=3650
%%%mzn-stat: restarts=0
%%%mzn-stat: peakDepth=175
%%%mzn-stat: solveTime=0.104426351
%%%mzn-stat: variables=372
%%%mzn-stat: propagators=253
%%%mzn-stat: failures=1176
%%%mzn-stat: propagations=38789
%%%mzn-stat: nogoods=1176
%%%mzn-stat: numAtomicConstraintsPropagated=0
%%%mzn-stat: allDifferentNumber1TotalHallSetSize=4185
%%%mzn-stat: allDifferentNumber1NumberOfConflicts=937
%%%mzn-stat: allDifferentNumber1MaxHallSetSize=17
%%%mzn-stat: allDifferentNumber1PropagationsTotal=4943
%%%mzn-stat: allDifferentNumber1PropagationsThatFoundConflict=937
%%%mzn-stat: circuitNumber2PropagationsThatFoundConflict=146
%%%mzn-stat: circuitNumber2TotalFixedEdgesAtConflict=2403
%%%mzn-stat: circuitNumber2NumberOfConflicts=146
%%%mzn-stat: circuitNumber2PropagationsThatPruned=442
%%%mzn-stat: circuitNumber2PropagationsTotal=2410
%%%mzn-stat: AverageConflictSize=7.256802721088436
%%%mzn-stat: NumUnitNogoodsLearned=0
%%%mzn-stat: AverageLearnedNogoodLength=12.683673469387756
%%%mzn-stat: AverageBacktrackAmount=0
%%%mzn-stat: AverageLbd=7.725340136054422
%%%mzn-stat: 2AutonomousSearchNumBackupCalled=1398
%%%mzn-stat: 2AutonomousSearchNumPredicatesRemoved=0
%%%mzn-stat: 2AutonomousSearchNumCalls=1410
%%%mzn-stat: 2AutonomousSearchNumPredicatesAdded=2848
%%%mzn-stat: 2AutonomousSearchAverageSizeOfHeap=4.301418439716312
%%%mzn-stat: 2AutonomousSearchNumAssignedPredicatesEncountered=6065
%%%mzn-stat-end
maxleg = 381;
succ = array1d(1..20,[4, 11, 5, 16, 9, 8, 3, 15, 12, 6, 18, 20, 19, 1, 17, 13, 2, 7, 10, 14]);
% time elapsed: 0.28 s
----------
==========
% time elapsed: 0.28 s
%%%mzn-stat: initTime=0.003994503
%%%mzn-stat: objective=381
%%%mzn-stat: nodes=3650
%%%mzn-stat: restarts=0
%%%mzn-stat: peakDepth=175
%%%mzn-stat: solveTime=0.104673525
%%%mzn-stat: variables=372
%%%mzn-stat: propagators=253
%%%mzn-stat: failures=1177
%%%mzn-stat: propagations=38948
%%%mzn-stat: nogoods=1177
%%%mzn-stat: numAtomicConstraintsPropagated=0
%%%mzn-stat: allDifferentNumber1TotalHallSetSize=4205
%%%mzn-stat: allDifferentNumber1NumberOfConflicts=938
%%%mzn-stat: allDifferentNumber1MaxHallSetSize=20
%%%mzn-stat: allDifferentNumber1PropagationsTotal=4945
%%%mzn-stat: allDifferentNumber1PropagationsThatFoundConflict=938
%%%mzn-stat: circuitNumber2PropagationsThatFoundConflict=146
%%%mzn-stat: circuitNumber2TotalFixedEdgesAtConflict=2403
%%%mzn-stat: circuitNumber2NumberOfConflicts=146
%%%mzn-stat: circuitNumber2PropagationsThatPruned=442
%%%mzn-stat: circuitNumber2PropagationsTotal=2411
%%%mzn-stat: AverageConflictSize=7.268479184367035
%%%mzn-stat: NumUnitNogoodsLearned=1
%%%mzn-stat: AverageLearnedNogoodLength=12.67374681393373
%%%mzn-stat: AverageBacktrackAmount=0
%%%mzn-stat: AverageLbd=7.719626168224299
%%%mzn-stat: 2AutonomousSearchNumBackupCalled=1398
%%%mzn-stat: 2AutonomousSearchNumPredicatesRemoved=0
%%%mzn-stat: 2AutonomousSearchNumCalls=1410
%%%mzn-stat: 2AutonomousSearchNumPredicatesAdded=3022
%%%mzn-stat: 2AutonomousSearchAverageSizeOfHeap=4.301418439716312
%%%mzn-stat: 2AutonomousSearchNumAssignedPredicatesEncountered=6065
%%%mzn-stat-end
